100
32
4
25
19
30
29
18
31
7
29
31
9
23
15
31
20
14
30
7
8
7
31
4
14
25
10
7
2
26
7
2
30
8
28
22
27
28
13
28
2
1
3
20
12
12
16
26
21
19
21
11
26
2
13
18
20
4
4
7
20
10
25
4
7
28
3
23
19
11
10
22
27
25
23
4
25
23
2
17
15
6
6
18
20
21
4
26
2
15
16
23
31
19
32
21
10
11
6
9
6
23